Route #1: 1 29 49 33 30 56 1
Route #2: 1 61 6 14 16 10 48 38 1
Route #3: 1 32 4 41 17 45 57 1
Route #4: 1 58 39 54 24 12 25 44 18 42 1
Route #5: 1 9 31 60 47 50 5 40 1
Route #6: 1 53 20 52 22 3 63 26 36 1
Route #7: 1 34 27 7 55 59 15 13 1
Route #8: 1 46 21 37 2 28 1
Route #9: 1 35 23 43 62 11 8 1
Route #10: 1 19 51 1
cost 1771
